(declare-fun y () Int)
(declare-fun x () Int)

(assert (
and (and (and (and (and (
= y (+ x (/ (- (+ (/ x 86) x) 90) (- 86 86)))
) (
= y (* (- (- x x) (+ x x)) (* 24 (* 17 x)))
)) (
<= (- (/ x 57) (- x 71)) (* (/ y 64) (* (/ 53 52) 62))
)) (and (
< y (- x (/ (/ x x) x))
) (
< (/ (* (* 61 y) 79) (/ (/ 81 78) 59)) 16
))) (and (and (
< (/ (* (* 83 11) y) (* (* 85 7) 6)) (- 50 x)
) (
> (- x (* x 90)) (* y 8)
)) (and (
>= (+ (/ (- (+ x 54) 88) x) x) y
) (
< (/ (* (* (/ (* 39 89) 8) 63) y) (* 76 78)) (- x (/ x x))
)))) (and (and (and (
> y (+ (/ x (/ (* 67 23) x)) (/ (- (- 75 89) x) (* x x)))
) (
>= (/ (* 94 y) (/ 6 (/ 54 75))) (/ 15 x)
)) (and (
<= (/ (- x x) x) (/ (* (/ y (* 27 1)) 23) 38)
) (
= (/ y (* 4 99)) (* (* x 12) (/ 5 x))
))) (and (and (
>= y (+ (- (* 89 86) (- (- x 87) (- 24 97))) x)
) (
< (/ (+ (- 73 x) (/ x x)) (- x x)) y
)) (and (
= x (/ (/ y 53) (* (/ (/ (/ 77 14) 8) 55) (/ 16 81)))
) (
not (= (- x 3) (* (/ y (/ 47 28)) (* 42 43)))
))))
))